N = 12;
H = 5;
T = 2;

avail = array3d(1..N, 1..H, 1..T, [0, 0, 6, 4, 1, 6, 2, 10, 6, 8, 6, 5, 7, 2, 3, 2, 7, 6, 3, 2, 1, 8, 2, 2, 1, 3, 4, 6, 8, 4, 7, 9, 10, 10, 1, 0, 5, 7, 1, 2, 3, 2, 5, 6, 3, 1, 8, 7, 8, 2, 5, 9, 3, 2, 3, 7, 0, 1, 2, 4, 2, 3, 1, 0, 4, 2, 1, 1, 9, 0, 10, 2, 6, 4, 10, 9, 1, 8, 2, 2, 5, 8, 3, 0, 4, 9, 9, 10, 8, 9, 6, 0, 3, 6, 8, 3, 9, 8, 0, 7, 2, 10, 10, 1, 5, 3, 1, 1, 7, 2, 6, 4, 2, 7, 8, 6, 3, 1, 9, 6]);

r = array2d(1..H, 1..T, [4, 0, 4, 2, 5, 1, 3, 6, 1, 3]);
